************************************************************************
file with basedata            : mm22_.bas
initial value random generator: 348603829
************************************************************************
projects                      :  1
jobs (incl. supersource/sink ):  12
horizon                       :  76
RESOURCES
  - renewable                 :  2   R
  - nonrenewable              :  2   N
  - doubly constrained        :  0   D
************************************************************************
PROJECT INFORMATION:
pronr.  #jobs rel.date duedate tardcost  MPM-Time
    1     10      0        8        5        8
************************************************************************
PRECEDENCE RELATIONS:
jobnr.    #modes  #successors   successors
   1        1          3           2   3   4
   2        3          2           6   9
   3        3          2           5  10
   4        3          3           7  10  11
   5        3          1           8
   6        3          2           8  10
   7        3          1           9
   8        3          1          11
   9        3          1          12
  10        3          1          12
  11        3          1          12
  12        1          0        
************************************************************************
REQUESTS/DURATIONS:
jobnr. mode duration  R 1  R 2  N 1  N 2
------------------------------------------------------------------------
  1      1     0       0    0    0    0
  2      1     2       2    0   10    7
         2     5       0    5    9    7
         3     7       0    4    9    7
  3      1     2       7    0    8    6
         2     2       7    0   10    5
         3     5       0    1    6    4
  4      1     2       0    7    8    5
         2     2       4    0   10    5
         3     7       0    7    8    4
  5      1     2       0    8    7    7
         2     3       0    8    5    6
         3    10       7    0    5    3
  6      1     1       0    4    5    8
         2     5      10    0    5    6
         3     8       0    2    5    5
  7      1     1       0    5    1   10
         2     2       7    0    1   10
         3     7       6    0    1   10
  8      1     1       0    8    9    2
         2     3       0    7    8    2
         3     6       0    5    8    2
  9      1     1       5    0    8    7
         2     2       0    1    8    7
         3     7       5    0    5    4
 10      1     5       0    8    6    6
         2     5       6    0    6    5
         3    10       0    8    3    4
 11      1     2       0    9    5    4
         2     7      10    0    5    3
         3     9       4    0    4    3
 12      1     0       0    0    0    0
************************************************************************
RESOURCEAVAILABILITIES:
  R 1  R 2  N 1  N 2
   17   13   63   54
************************************************************************
MAXIMAL LAGS:
from  to  type  delay
    1   12   ES      0
    1    2   ES      0
    2   12   ES      0
    1    3   ES      0
    3   12   ES      0
    1    4   ES      0
    4   12   ES      0
    1    5   ES      0
    5   12   ES      0
    1    6   ES      0
    6   12   ES      0
    1    7   ES      0
    7   12   ES      0
    1    8   ES      0
    8   12   ES      0
    1    9   ES      0
    9   12   ES      0
    1   10   ES      0
   10   12   ES      0
    1   11   ES      0
   11   12   ES      0
    1   12   ES      0
    2    6   SS      1
    2    6   SE     -9
    2    6   ES     -4
    2    6   EE      7
    2    9   SS     -6
    2    9   SE     -6
    2    9   ES     -9
    2    9   EE      0
    3    5   SS     -6
    3    5   SE      2
    3    5   ES     -6
    3    5   EE     10
    3   10   SS     -2
    3   10   SE     -9
    3   10   ES     12
    3   10   EE      1
    4    7   SS    -11
    4    7   SE      8
    4    7   ES      9
    4    7   EE      6
    4   10   SS     -9
    4   10   SE     12
    4   10   ES      2
    4   10   EE      2
    4   11   SS      9
    4   11   SE      6
    4   11   ES      4
    4   11   EE     -8
    5    8   SS      3
    5    8   SE    -12
    5    8   ES      4
    5    8   EE     11
    6    8   SS    -11
    6    8   SE      5
    6    8   ES      1
    6    8   EE      6
    6   10   SS      3
    6   10   SE      4
    6   10   ES     12
    6   10   EE     -7
    7    9   SS     10
    7    9   SE      6
    7    9   ES     -7
    7    9   EE     11
    8   11   SS     -8
    8   11   SE     -9
   11    8   SE      0
    8   11   ES      0
    8   11   EE      9
************************************************************************
